138 48 65 194 175 178 177 54 8 112 173 181 24 116 20 150 132 119 195 99 39 130 140 113 162 64 111 69 21 16 67 103 168 153 26 123 10 185 199 191 85 44 59 107 152 31 192 190 49 129 96 51 7 127 166 198 37 179 133 52 86 29 118 94 33 89 74 159 0 40 160 193 97 102 93 60 106 5 182 143 90 71 186 6 57 131 154 43 28 104 79 101 183 13 188 2 165 22 35 41 80 108 149 82 115 46 158 56 151 121 27 14 124 167 136 144 117 18 50 58 176 146 72 91 135 1 63 161 145 30 42 92 81 100 148 157 155 53 187 66 15 84 163 11 134 76 95 142 110 184 172 70 128 126 45 17 169 88 62 78 12 164 75 32 114 19 139 105 25 55 98 156 170 122 120 125 196 137 189 174 38 171 3 68 73 147 47 61 36 197 109 180 77 83 34 9 4 141 23 87